p tw 2139 2546
1 88
1 2034
2 89
2 2035
3 76
3 2036
4 77
4 2037
5 92
5 2038
6 54
6 2039
7 93
7 2040
8 98
8 2041
9 99
9 2042
10 55
10 2043
11 56
11 2044
12 57
12 2045
13 64
13 2046
14 65
14 2047
15 78
15 2048
16 79
16 2049
17 82
17 2050
18 117
18 2051
19 68
19 2052
20 83
20 2053
21 66
21 2054
22 67
22 2055
23 122
23 2056
24 84
24 2057
25 85
25 2058
26 70
26 2059
27 71
27 2060
28 69
28 2061
29 80
29 2062
30 129
30 2063
31 60
31 2064
32 61
32 2065
33 81
33 2066
34 90
34 2067
35 91
35 2068
36 135
36 2069
37 58
37 2070
38 59
38 2071
39 74
39 2072
40 96
40 2073
41 140
41 2074
42 75
42 2075
43 97
43 2076
44 86
44 2077
45 87
45 2078
46 94
46 2079
47 95
47 2080
48 72
48 2081
49 73
49 2082
50 62
50 2083
51 63
51 2084
52 151
52 2085
53 152
53 2086
54 55
54 105
55 109
56 57
56 110
57 111
58 59
58 136
59 137
60 61
60 130
61 131
62 63
62 149
63 150
64 65
64 112
65 113
66 67
66 120
67 121
68 69
68 118
69 127
70 71
70 125
71 126
72 73
72 147
73 148
74 75
74 138
75 141
76 77
76 102
77 103
78 79
78 114
79 115
80 81
80 128
81 132
82 83
82 116
83 119
84 85
84 123
85 124
86 87
86 143
87 144
88 89
88 100
89 101
90 91
90 133
91 134
92 93
92 104
93 106
94 95
94 145
95 146
96 97
96 139
97 142
98 99
98 107
99 108
100 177
101 161
102 162
103 197
104 198
105 178
106 193
107 155
108 207
109 175
110 176
111 179
112 180
113 194
114 213
115 169
116 156
117 171
118 170
119 183
120 184
121 189
122 190
123 172
124 191
125 192
126 187
127 188
128 227
129 195
130 181
131 230
132 163
133 164
134 157
135 158
136 196
137 173
138 174
139 182
140 165
141 159
142 153
143 154
144 167
145 168
146 166
147 246
148 185
149 186
150 160
151 250
152 251
153 154
153 241
154 242
155 156
155 206
156 215
157 158
157 233
158 234
159 160
159 240
160 249
161 162
161 200
162 201
163 164
163 231
164 232
165 166
165 239
166 245
167 168
167 243
168 244
169 170
169 214
170 217
171 172
171 216
172 222
173 174
173 236
174 237
175 176
175 208
176 209
177 178
177 199
178 204
179 180
179 210
180 211
181 182
181 229
182 238
183 184
183 218
184 219
185 186
185 247
186 248
187 188
187 225
188 226
189 190
189 220
190 221
191 192
191 223
192 224
193 194
193 205
194 212
195 196
195 228
196 235
197 198
197 202
198 203
199 282
200 268
201 269
202 296
203 297
204 283
205 304
206 260
207 258
208 259
209 308
210 288
211 310
212 292
213 293
214 270
215 261
216 289
217 271
218 286
219 287
220 256
221 252
222 253
223 322
224 276
225 290
226 291
227 257
228 277
229 284
230 266
231 267
232 331
233 280
234 274
235 275
236 278
237 279
238 285
239 281
240 264
241 254
242 255
243 294
244 343
245 262
246 263
247 272
248 347
249 265
250 295
251 273
252 253
252 320
253 321
254 255
254 340
255 341
256 257
256 319
257 326
258 259
258 306
259 307
260 261
260 305
261 314
262 263
262 344
263 345
264 265
264 339
265 348
266 267
266 329
267 330
268 269
268 299
269 300
270 271
270 313
271 316
272 273
272 346
273 350
274 275
274 333
275 334
276 277
276 323
277 327
278 279
278 335
279 336
280 281
280 332
281 338
282 283
282 298
283 303
284 285
284 328
285 337
286 287
286 317
287 318
288 289
288 309
289 315
290 291
290 324
291 325
292 293
292 311
293 312
294 295
294 342
295 349
296 297
296 301
297 302
298 385
299 386
300 373
301 374
302 389
303 351
304 390
305 395
306 396
307 352
308 353
309 354
310 361
311 362
312 375
313 376
314 379
315 414
316 365
317 380
318 363
319 364
320 419
321 381
322 382
323 367
324 368
325 366
326 377
327 426
328 357
329 358
330 378
331 387
332 388
333 432
334 355
335 356
336 371
337 393
338 437
339 372
340 394
341 383
342 384
343 391
344 392
345 369
346 370
347 359
348 360
349 448
350 449
351 352
351 402
352 406
353 354
353 407
354 408
355 356
355 433
356 434
357 358
357 427
358 428
359 360
359 446
360 447
361 362
361 409
362 410
363 364
363 417
364 418
365 366
365 415
366 424
367 368
367 422
368 423
369 370
369 444
370 445
371 372
371 435
372 438
373 374
373 399
374 400
375 376
375 411
376 412
377 378
377 425
378 429
379 380
379 413
380 416
381 382
381 420
382 421
383 384
383 440
384 441
385 386
385 397
386 398
387 388
387 430
388 431
389 390
389 401
390 403
391 392
391 442
392 443
393 394
393 436
394 439
395 396
395 404
396 405
397 474
398 458
399 459
400 494
401 495
402 475
403 490
404 452
405 504
406 472
407 473
408 476
409 477
410 491
411 510
412 466
413 453
414 468
415 467
416 480
417 481
418 486
419 487
420 469
421 488
422 489
423 484
424 485
425 524
426 492
427 478
428 527
429 460
430 461
431 454
432 455
433 493
434 470
435 471
436 479
437 462
438 456
439 450
440 451
441 464
442 465
443 463
444 543
445 482
446 483
447 457
448 547
449 548
450 451
450 538
451 539
452 453
452 503
453 512
454 455
454 530
455 531
456 457
456 537
457 546
458 459
458 497
459 498
460 461
460 528
461 529
462 463
462 536
463 542
464 465
464 540
465 541
466 467
466 511
467 514
468 469
468 513
469 519
470 471
470 533
471 534
472 473
472 505
473 506
474 475
474 496
475 501
476 477
476 507
477 508
478 479
478 526
479 535
480 481
480 515
481 516
482 483
482 544
483 545
484 485
484 522
485 523
486 487
486 517
487 518
488 489
488 520
489 521
490 491
490 502
491 509
492 493
492 525
493 532
494 495
494 499
495 500
496 579
497 565
498 566
499 593
500 594
501 580
502 601
503 557
504 555
505 556
506 605
507 585
508 607
509 589
510 590
511 567
512 558
513 586
514 568
515 583
516 584
517 553
518 549
519 550
520 619
521 573
522 587
523 588
524 554
525 574
526 581
527 563
528 564
529 628
530 577
531 571
532 572
533 575
534 576
535 582
536 578
537 561
538 551
539 552
540 591
541 640
542 559
543 560
544 569
545 644
546 562
547 592
548 570
549 550
549 617
550 618
551 552
551 637
552 638
553 554
553 616
554 623
555 556
555 603
556 604
557 558
557 602
558 611
559 560
559 641
560 642
561 562
561 636
562 645
563 564
563 626
564 627
565 566
565 596
566 597
567 568
567 610
568 613
569 570
569 643
570 647
571 572
571 630
572 631
573 574
573 620
574 624
575 576
575 632
576 633
577 578
577 629
578 635
579 580
579 595
580 600
581 582
581 625
582 634
583 584
583 614
584 615
585 586
585 606
586 612
587 588
587 621
588 622
589 590
589 608
590 609
591 592
591 639
592 646
593 594
593 598
594 599
595 682
596 683
597 670
598 671
599 686
600 648
601 687
602 692
603 693
604 649
605 650
606 651
607 658
608 659
609 672
610 673
611 676
612 711
613 662
614 677
615 660
616 661
617 716
618 678
619 679
620 664
621 665
622 663
623 674
624 723
625 654
626 655
627 675
628 684
629 685
630 729
631 652
632 653
633 668
634 690
635 734
636 669
637 691
638 680
639 681
640 688
641 689
642 666
643 667
644 656
645 657
646 745
647 746
648 649
648 699
649 703
650 651
650 704
651 705
652 653
652 730
653 731
654 655
654 724
655 725
656 657
656 743
657 744
658 659
658 706
659 707
660 661
660 714
661 715
662 663
662 712
663 721
664 665
664 719
665 720
666 667
666 741
667 742
668 669
668 732
669 735
670 671
670 696
671 697
672 673
672 708
673 709
674 675
674 722
675 726
676 677
676 710
677 713
678 679
678 717
679 718
680 681
680 737
681 738
682 683
682 694
683 695
684 685
684 727
685 728
686 687
686 698
687 700
688 689
688 739
689 740
690 691
690 733
691 736
692 693
692 701
693 702
694 771
695 755
696 756
697 791
698 792
699 772
700 787
701 749
702 801
703 769
704 770
705 773
706 774
707 788
708 807
709 763
710 750
711 765
712 764
713 777
714 778
715 783
716 784
717 766
718 785
719 786
720 781
721 782
722 821
723 789
724 775
725 824
726 757
727 758
728 751
729 752
730 790
731 767
732 768
733 776
734 759
735 753
736 747
737 748
738 761
739 762
740 760
741 840
742 779
743 780
744 754
745 844
746 845
747 748
747 835
748 836
749 750
749 800
750 809
751 752
751 827
752 828
753 754
753 834
754 843
755 756
755 794
756 795
757 758
757 825
758 826
759 760
759 833
760 839
761 762
761 837
762 838
763 764
763 808
764 811
765 766
765 810
766 816
767 768
767 830
768 831
769 770
769 802
770 803
771 772
771 793
772 798
773 774
773 804
774 805
775 776
775 823
776 832
777 778
777 812
778 813
779 780
779 841
780 842
781 782
781 819
782 820
783 784
783 814
784 815
785 786
785 817
786 818
787 788
787 799
788 806
789 790
789 822
790 829
791 792
791 796
792 797
793 876
794 862
795 863
796 890
797 891
798 877
799 898
800 854
801 852
802 853
803 902
804 882
805 904
806 886
807 887
808 864
809 855
810 883
811 865
812 880
813 881
814 850
815 846
816 847
817 916
818 870
819 884
820 885
821 851
822 871
823 878
824 860
825 861
826 925
827 874
828 868
829 869
830 872
831 873
832 879
833 875
834 858
835 848
836 849
837 888
838 937
839 856
840 857
841 866
842 941
843 859
844 889
845 867
846 847
846 914
847 915
848 849
848 934
849 935
850 851
850 913
851 920
852 853
852 900
853 901
854 855
854 899
855 908
856 857
856 938
857 939
858 859
858 933
859 942
860 861
860 923
861 924
862 863
862 893
863 894
864 865
864 907
865 910
866 867
866 940
867 944
868 869
868 927
869 928
870 871
870 917
871 921
872 873
872 929
873 930
874 875
874 926
875 932
876 877
876 892
877 897
878 879
878 922
879 931
880 881
880 911
881 912
882 883
882 903
883 909
884 885
884 918
885 919
886 887
886 905
887 906
888 889
888 936
889 943
890 891
890 895
891 896
892 979
893 980
894 967
895 968
896 983
897 945
898 984
899 989
900 990
901 946
902 947
903 948
904 955
905 956
906 969
907 970
908 973
909 1008
910 959
911 974
912 957
913 958
914 1013
915 975
916 976
917 961
918 962
919 960
920 971
921 1020
922 951
923 952
924 972
925 981
926 982
927 1026
928 949
929 950
930 965
931 987
932 1031
933 966
934 988
935 977
936 978
937 985
938 986
939 963
940 964
941 953
942 954
943 1042
944 1043
945 946
945 996
946 1000
947 948
947 1001
948 1002
949 950
949 1027
950 1028
951 952
951 1021
952 1022
953 954
953 1040
954 1041
955 956
955 1003
956 1004
957 958
957 1011
958 1012
959 960
959 1009
960 1018
961 962
961 1016
962 1017
963 964
963 1038
964 1039
965 966
965 1029
966 1032
967 968
967 993
968 994
969 970
969 1005
970 1006
971 972
971 1019
972 1023
973 974
973 1007
974 1010
975 976
975 1014
976 1015
977 978
977 1034
978 1035
979 980
979 991
980 992
981 982
981 1024
982 1025
983 984
983 995
984 997
985 986
985 1036
986 1037
987 988
987 1030
988 1033
989 990
989 998
990 999
991 1068
992 1052
993 1053
994 1088
995 1089
996 1069
997 1084
998 1046
999 1098
1000 1066
1001 1067
1002 1070
1003 1071
1004 1085
1005 1104
1006 1060
1007 1047
1008 1062
1009 1061
1010 1074
1011 1075
1012 1080
1013 1081
1014 1063
1015 1082
1016 1083
1017 1078
1018 1079
1019 1118
1020 1086
1021 1072
1022 1121
1023 1054
1024 1055
1025 1048
1026 1049
1027 1087
1028 1064
1029 1065
1030 1073
1031 1056
1032 1050
1033 1044
1034 1045
1035 1058
1036 1059
1037 1057
1038 1137
1039 1076
1040 1077
1041 1051
1042 1141
1043 1142
1044 1045
1044 1132
1045 1133
1046 1047
1046 1097
1047 1106
1048 1049
1048 1124
1049 1125
1050 1051
1050 1131
1051 1140
1052 1053
1052 1091
1053 1092
1054 1055
1054 1122
1055 1123
1056 1057
1056 1130
1057 1136
1058 1059
1058 1134
1059 1135
1060 1061
1060 1105
1061 1108
1062 1063
1062 1107
1063 1113
1064 1065
1064 1127
1065 1128
1066 1067
1066 1099
1067 1100
1068 1069
1068 1090
1069 1095
1070 1071
1070 1101
1071 1102
1072 1073
1072 1120
1073 1129
1074 1075
1074 1109
1075 1110
1076 1077
1076 1138
1077 1139
1078 1079
1078 1116
1079 1117
1080 1081
1080 1111
1081 1112
1082 1083
1082 1114
1083 1115
1084 1085
1084 1096
1085 1103
1086 1087
1086 1119
1087 1126
1088 1089
1088 1093
1089 1094
1090 1173
1091 1159
1092 1160
1093 1187
1094 1188
1095 1174
1096 1195
1097 1151
1098 1149
1099 1150
1100 1199
1101 1179
1102 1201
1103 1183
1104 1184
1105 1161
1106 1152
1107 1180
1108 1162
1109 1177
1110 1178
1111 1147
1112 1143
1113 1144
1114 1213
1115 1167
1116 1181
1117 1182
1118 1148
1119 1168
1120 1175
1121 1157
1122 1158
1123 1222
1124 1171
1125 1165
1126 1166
1127 1169
1128 1170
1129 1176
1130 1172
1131 1155
1132 1145
1133 1146
1134 1185
1135 1234
1136 1153
1137 1154
1138 1163
1139 1238
1140 1156
1141 1186
1142 1164
1143 1144
1143 1211
1144 1212
1145 1146
1145 1231
1146 1232
1147 1148
1147 1210
1148 1217
1149 1150
1149 1197
1150 1198
1151 1152
1151 1196
1152 1205
1153 1154
1153 1235
1154 1236
1155 1156
1155 1230
1156 1239
1157 1158
1157 1220
1158 1221
1159 1160
1159 1190
1160 1191
1161 1162
1161 1204
1162 1207
1163 1164
1163 1237
1164 1241
1165 1166
1165 1224
1166 1225
1167 1168
1167 1214
1168 1218
1169 1170
1169 1226
1170 1227
1171 1172
1171 1223
1172 1229
1173 1174
1173 1189
1174 1194
1175 1176
1175 1219
1176 1228
1177 1178
1177 1208
1178 1209
1179 1180
1179 1200
1180 1206
1181 1182
1181 1215
1182 1216
1183 1184
1183 1202
1184 1203
1185 1186
1185 1233
1186 1240
1187 1188
1187 1192
1188 1193
1189 1276
1190 1277
1191 1264
1192 1265
1193 1280
1194 1242
1195 1281
1196 1286
1197 1287
1198 1243
1199 1244
1200 1245
1201 1252
1202 1253
1203 1266
1204 1267
1205 1270
1206 1305
1207 1256
1208 1271
1209 1254
1210 1255
1211 1310
1212 1272
1213 1273
1214 1258
1215 1259
1216 1257
1217 1268
1218 1317
1219 1248
1220 1249
1221 1269
1222 1278
1223 1279
1224 1323
1225 1246
1226 1247
1227 1262
1228 1284
1229 1328
1230 1263
1231 1285
1232 1274
1233 1275
1234 1282
1235 1283
1236 1260
1237 1261
1238 1250
1239 1251
1240 1339
1241 1340
1242 1243
1242 1293
1243 1297
1244 1245
1244 1298
1245 1299
1246 1247
1246 1324
1247 1325
1248 1249
1248 1318
1249 1319
1250 1251
1250 1337
1251 1338
1252 1253
1252 1300
1253 1301
1254 1255
1254 1308
1255 1309
1256 1257
1256 1306
1257 1315
1258 1259
1258 1313
1259 1314
1260 1261
1260 1335
1261 1336
1262 1263
1262 1326
1263 1329
1264 1265
1264 1290
1265 1291
1266 1267
1266 1302
1267 1303
1268 1269
1268 1316
1269 1320
1270 1271
1270 1304
1271 1307
1272 1273
1272 1311
1273 1312
1274 1275
1274 1331
1275 1332
1276 1277
1276 1288
1277 1289
1278 1279
1278 1321
1279 1322
1280 1281
1280 1292
1281 1294
1282 1283
1282 1333
1283 1334
1284 1285
1284 1327
1285 1330
1286 1287
1286 1295
1287 1296
1288 1365
1289 1349
1290 1350
1291 1385
1292 1386
1293 1366
1294 1381
1295 1343
1296 1395
1297 1363
1298 1364
1299 1367
1300 1368
1301 1382
1302 1401
1303 1357
1304 1344
1305 1359
1306 1358
1307 1371
1308 1372
1309 1377
1310 1378
1311 1360
1312 1379
1313 1380
1314 1375
1315 1376
1316 1415
1317 1383
1318 1369
1319 1418
1320 1351
1321 1352
1322 1345
1323 1346
1324 1384
1325 1361
1326 1362
1327 1370
1328 1353
1329 1347
1330 1341
1331 1342
1332 1355
1333 1356
1334 1354
1335 1434
1336 1373
1337 1374
1338 1348
1339 1438
1340 1439
1341 1342
1341 1429
1342 1430
1343 1344
1343 1394
1344 1403
1345 1346
1345 1421
1346 1422
1347 1348
1347 1428
1348 1437
1349 1350
1349 1388
1350 1389
1351 1352
1351 1419
1352 1420
1353 1354
1353 1427
1354 1433
1355 1356
1355 1431
1356 1432
1357 1358
1357 1402
1358 1405
1359 1360
1359 1404
1360 1410
1361 1362
1361 1424
1362 1425
1363 1364
1363 1396
1364 1397
1365 1366
1365 1387
1366 1392
1367 1368
1367 1398
1368 1399
1369 1370
1369 1417
1370 1426
1371 1372
1371 1406
1372 1407
1373 1374
1373 1435
1374 1436
1375 1376
1375 1413
1376 1414
1377 1378
1377 1408
1378 1409
1379 1380
1379 1411
1380 1412
1381 1382
1381 1393
1382 1400
1383 1384
1383 1416
1384 1423
1385 1386
1385 1390
1386 1391
1387 1470
1388 1456
1389 1457
1390 1484
1391 1485
1392 1471
1393 1492
1394 1448
1395 1446
1396 1447
1397 1496
1398 1476
1399 1498
1400 1480
1401 1481
1402 1458
1403 1449
1404 1477
1405 1459
1406 1474
1407 1475
1408 1444
1409 1440
1410 1441
1411 1510
1412 1464
1413 1478
1414 1479
1415 1445
1416 1465
1417 1472
1418 1454
1419 1455
1420 1519
1421 1468
1422 1462
1423 1463
1424 1466
1425 1467
1426 1473
1427 1469
1428 1452
1429 1442
1430 1443
1431 1482
1432 1531
1433 1450
1434 1451
1435 1460
1436 1535
1437 1453
1438 1483
1439 1461
1440 1441
1440 1508
1441 1509
1442 1443
1442 1528
1443 1529
1444 1445
1444 1507
1445 1514
1446 1447
1446 1494
1447 1495
1448 1449
1448 1493
1449 1502
1450 1451
1450 1532
1451 1533
1452 1453
1452 1527
1453 1536
1454 1455
1454 1517
1455 1518
1456 1457
1456 1487
1457 1488
1458 1459
1458 1501
1459 1504
1460 1461
1460 1534
1461 1538
1462 1463
1462 1521
1463 1522
1464 1465
1464 1511
1465 1515
1466 1467
1466 1523
1467 1524
1468 1469
1468 1520
1469 1526
1470 1471
1470 1486
1471 1491
1472 1473
1472 1516
1473 1525
1474 1475
1474 1505
1475 1506
1476 1477
1476 1497
1477 1503
1478 1479
1478 1512
1479 1513
1480 1481
1480 1499
1481 1500
1482 1483
1482 1530
1483 1537
1484 1485
1484 1489
1485 1490
1486 1573
1487 1574
1488 1561
1489 1562
1490 1577
1491 1539
1492 1578
1493 1583
1494 1584
1495 1540
1496 1541
1497 1542
1498 1549
1499 1550
1500 1563
1501 1564
1502 1567
1503 1602
1504 1553
1505 1568
1506 1551
1507 1552
1508 1607
1509 1569
1510 1570
1511 1555
1512 1556
1513 1554
1514 1565
1515 1614
1516 1545
1517 1546
1518 1566
1519 1575
1520 1576
1521 1620
1522 1543
1523 1544
1524 1559
1525 1581
1526 1625
1527 1560
1528 1582
1529 1571
1530 1572
1531 1579
1532 1580
1533 1557
1534 1558
1535 1547
1536 1548
1537 1636
1538 1637
1539 1540
1539 1590
1540 1594
1541 1542
1541 1595
1542 1596
1543 1544
1543 1621
1544 1622
1545 1546
1545 1615
1546 1616
1547 1548
1547 1634
1548 1635
1549 1550
1549 1597
1550 1598
1551 1552
1551 1605
1552 1606
1553 1554
1553 1603
1554 1612
1555 1556
1555 1610
1556 1611
1557 1558
1557 1632
1558 1633
1559 1560
1559 1623
1560 1626
1561 1562
1561 1587
1562 1588
1563 1564
1563 1599
1564 1600
1565 1566
1565 1613
1566 1617
1567 1568
1567 1601
1568 1604
1569 1570
1569 1608
1570 1609
1571 1572
1571 1628
1572 1629
1573 1574
1573 1585
1574 1586
1575 1576
1575 1618
1576 1619
1577 1578
1577 1589
1578 1591
1579 1580
1579 1630
1580 1631
1581 1582
1581 1624
1582 1627
1583 1584
1583 1592
1584 1593
1585 1662
1586 1646
1587 1647
1588 1682
1589 1683
1590 1663
1591 1678
1592 1640
1593 1692
1594 1660
1595 1661
1596 1664
1597 1665
1598 1679
1599 1698
1600 1654
1601 1641
1602 1656
1603 1655
1604 1668
1605 1669
1606 1674
1607 1675
1608 1657
1609 1676
1610 1677
1611 1672
1612 1673
1613 1712
1614 1680
1615 1666
1616 1715
1617 1648
1618 1649
1619 1642
1620 1643
1621 1681
1622 1658
1623 1659
1624 1667
1625 1650
1626 1644
1627 1638
1628 1639
1629 1652
1630 1653
1631 1651
1632 1731
1633 1670
1634 1671
1635 1645
1636 1735
1637 1736
1638 1639
1638 1726
1639 1727
1640 1641
1640 1691
1641 1700
1642 1643
1642 1718
1643 1719
1644 1645
1644 1725
1645 1734
1646 1647
1646 1685
1647 1686
1648 1649
1648 1716
1649 1717
1650 1651
1650 1724
1651 1730
1652 1653
1652 1728
1653 1729
1654 1655
1654 1699
1655 1702
1656 1657
1656 1701
1657 1707
1658 1659
1658 1721
1659 1722
1660 1661
1660 1693
1661 1694
1662 1663
1662 1684
1663 1689
1664 1665
1664 1695
1665 1696
1666 1667
1666 1714
1667 1723
1668 1669
1668 1703
1669 1704
1670 1671
1670 1732
1671 1733
1672 1673
1672 1710
1673 1711
1674 1675
1674 1705
1675 1706
1676 1677
1676 1708
1677 1709
1678 1679
1678 1690
1679 1697
1680 1681
1680 1713
1681 1720
1682 1683
1682 1687
1683 1688
1684 1767
1685 1753
1686 1754
1687 1781
1688 1782
1689 1768
1690 1789
1691 1745
1692 1743
1693 1744
1694 1793
1695 1773
1696 1795
1697 1777
1698 1778
1699 1755
1700 1746
1701 1774
1702 1756
1703 1771
1704 1772
1705 1741
1706 1737
1707 1738
1708 1807
1709 1761
1710 1775
1711 1776
1712 1742
1713 1762
1714 1769
1715 1751
1716 1752
1717 1816
1718 1765
1719 1759
1720 1760
1721 1763
1722 1764
1723 1770
1724 1766
1725 1749
1726 1739
1727 1740
1728 1779
1729 1828
1730 1747
1731 1748
1732 1757
1733 1832
1734 1750
1735 1780
1736 1758
1737 1738
1737 1805
1738 1806
1739 1740
1739 1825
1740 1826
1741 1742
1741 1804
1742 1811
1743 1744
1743 1791
1744 1792
1745 1746
1745 1790
1746 1799
1747 1748
1747 1829
1748 1830
1749 1750
1749 1824
1750 1833
1751 1752
1751 1814
1752 1815
1753 1754
1753 1784
1754 1785
1755 1756
1755 1798
1756 1801
1757 1758
1757 1831
1758 1835
1759 1760
1759 1818
1760 1819
1761 1762
1761 1808
1762 1812
1763 1764
1763 1820
1764 1821
1765 1766
1765 1817
1766 1823
1767 1768
1767 1783
1768 1788
1769 1770
1769 1813
1770 1822
1771 1772
1771 1802
1772 1803
1773 1774
1773 1794
1774 1800
1775 1776
1775 1809
1776 1810
1777 1778
1777 1796
1778 1797
1779 1780
1779 1827
1780 1834
1781 1782
1781 1786
1782 1787
1783 1870
1784 1871
1785 1858
1786 1859
1787 1874
1788 1836
1789 1875
1790 1880
1791 1881
1792 1837
1793 1838
1794 1839
1795 1846
1796 1847
1797 1860
1798 1861
1799 1864
1800 1899
1801 1850
1802 1865
1803 1848
1804 1849
1805 1904
1806 1866
1807 1867
1808 1852
1809 1853
1810 1851
1811 1862
1812 1911
1813 1842
1814 1843
1815 1863
1816 1872
1817 1873
1818 1917
1819 1840
1820 1841
1821 1856
1822 1878
1823 1922
1824 1857
1825 1879
1826 1868
1827 1869
1828 1876
1829 1877
1830 1854
1831 1855
1832 1844
1833 1845
1834 1933
1835 1934
1836 1837
1836 1887
1837 1891
1838 1839
1838 1892
1839 1893
1840 1841
1840 1918
1841 1919
1842 1843
1842 1912
1843 1913
1844 1845
1844 1931
1845 1932
1846 1847
1846 1894
1847 1895
1848 1849
1848 1902
1849 1903
1850 1851
1850 1900
1851 1909
1852 1853
1852 1907
1853 1908
1854 1855
1854 1929
1855 1930
1856 1857
1856 1920
1857 1923
1858 1859
1858 1884
1859 1885
1860 1861
1860 1896
1861 1897
1862 1863
1862 1910
1863 1914
1864 1865
1864 1898
1865 1901
1866 1867
1866 1905
1867 1906
1868 1869
1868 1925
1869 1926
1870 1871
1870 1882
1871 1883
1872 1873
1872 1915
1873 1916
1874 1875
1874 1886
1875 1888
1876 1877
1876 1927
1877 1928
1878 1879
1878 1921
1879 1924
1880 1881
1880 1889
1881 1890
1882 1959
1883 1943
1884 1944
1885 1979
1886 1980
1887 1960
1888 1975
1889 1937
1890 1989
1891 1957
1892 1958
1893 1961
1894 1962
1895 1976
1896 1995
1897 1951
1898 1938
1899 1953
1900 1952
1901 1965
1902 1966
1903 1971
1904 1972
1905 1954
1906 1973
1907 1974
1908 1969
1909 1970
1910 2009
1911 1977
1912 1963
1913 2012
1914 1945
1915 1946
1916 1939
1917 1940
1918 1978
1919 1955
1920 1956
1921 1964
1922 1947
1923 1941
1924 1935
1925 1936
1926 1949
1927 1950
1928 1948
1929 2028
1930 1967
1931 1968
1932 1942
1933 2032
1934 2033
1935 1936
1935 2023
1936 2024
1937 1938
1937 1988
1938 1997
1939 1940
1939 2015
1940 2016
1941 1942
1941 2022
1942 2031
1943 1944
1943 1982
1944 1983
1945 1946
1945 2013
1946 2014
1947 1948
1947 2021
1948 2027
1949 1950
1949 2025
1950 2026
1951 1952
1951 1996
1952 1999
1953 1954
1953 1998
1954 2004
1955 1956
1955 2018
1956 2019
1957 1958
1957 1990
1958 1991
1959 1960
1959 1981
1960 1986
1961 1962
1961 1992
1962 1993
1963 1964
1963 2011
1964 2020
1965 1966
1965 2000
1966 2001
1967 1968
1967 2029
1968 2030
1969 1970
1969 2007
1970 2008
1971 1972
1971 2002
1972 2003
1973 1974
1973 2005
1974 2006
1975 1976
1975 1987
1976 1994
1977 1978
1977 2010
1978 2017
1979 1980
1979 1984
1980 1985
1981 2087
1982 2088
1983 2089
1984 2090
1985 2091
1986 2092
1987 2093
1988 2094
1989 2095
1990 2096
1991 2097
1992 2098
1993 2099
1994 2100
1995 2101
1996 2102
1997 2103
1998 2104
1999 2105
2000 2106
2001 2107
2002 2108
2003 2109
2004 2110
2005 2111
2006 2112
2007 2113
2008 2114
2009 2115
2010 2116
2011 2117
2012 2118
2013 2119
2014 2120
2015 2121
2016 2122
2017 2123
2018 2124
2019 2125
2020 2126
2021 2127
2022 2128
2023 2129
2024 2130
2025 2131
2026 2132
2027 2133
2028 2134
2029 2135
2030 2136
2031 2137
2032 2138
2033 2139
